% Generated FlatZinc statistics:
%%%mzn-stat: paths=0
%%%mzn-stat: flatBoolVars=2480
%%%mzn-stat: flatIntVars=245
%%%mzn-stat: flatBoolConstraints=776
%%%mzn-stat: flatIntConstraints=2693
%%%mzn-stat: evaluatedReifiedConstraints=158
%%%mzn-stat: evaluatedHalfReifiedConstraints=2322
%%%mzn-stat: eliminatedLinearConstraints=1
%%%mzn-stat: method="minimize"
%%%mzn-stat: flatTime=0.125348
%%%mzn-stat-end
end = 187
carga_por_operario = [187, 0, 0, 0]
desbalance = 187
Job 1:  64(op:1)  88(op:1)  95(op:1) 107(op:1) 177(op:1)
Job 2:  14(op:1)  48(op:1)  68(op:1)  78(op:1) 138(op:1)
Job 3:  27(op:1)  85(op:1) 115(op:1) 131(op:1) 168(op:1)
Job 4:  34(op:1)  42(op:1)  89(op:1)  96(op:1) 146(op:1)
Job 5:   0(op:1)  19(op:1)  74(op:1) 116(op:1) 181(op:1)
Job 6:  36(op:1)  50(op:1)  90(op:1) 136(op:1) 154(op:1)
Job 7:  39(op:1)  55(op:1) 124(op:1) 174(op:1) 185(op:1)
Job 8:   8(op:1)  62(op:1)  70(op:1) 101(op:1) 161(op:1)
----------
%%%mzn-stat: initTime=0.0125341
%%%mzn-stat: solveTime=59.8742
%%%mzn-stat: solutions=1
%%%mzn-stat: variables=2727
%%%mzn-stat: propagators=3469
%%%mzn-stat: propagations=621775327
%%%mzn-stat: nodes=8660372
%%%mzn-stat: failures=4330147
%%%mzn-stat: restarts=0
%%%mzn-stat: peakDepth=95
%%%mzn-stat-end
%%%mzn-stat: nSolutions=1
%%%mzn-stat-end
